
******************************************************************************
This program contains Ipopt, a library for large-scale nonlinear optimization.
 Ipopt is released as open source code under the Eclipse Public License (EPL).
         For more information visit http://projects.coin-or.org/Ipopt

This version of Ipopt was compiled from source code available at
    https://github.com/IDAES/Ipopt as part of the Institute for the Design of
    Advanced Energy Systems Process Systems Engineering Framework (IDAES PSE
    Framework) Copyright (c) 2018-2019. See https://github.com/IDAES/idaes-pse.

This version of Ipopt was compiled using HSL, a collection of Fortran codes
    for large-scale scientific computation.  All technical papers, sales and
    publicity material resulting from use of the HSL codes within IPOPT must
    contain the following acknowledgement:
        HSL, a collection of Fortran codes for large-scale scientific
        computation. See http://www.hsl.rl.ac.uk.
******************************************************************************

This is Ipopt version 3.13.2, running with linear solver ma27.

Number of nonzeros in equality constraint Jacobian...:      958
Number of nonzeros in inequality constraint Jacobian.:        0
Number of nonzeros in Lagrangian Hessian.............:      832

Total number of variables............................:      416
                     variables with only lower bounds:      128
                variables with lower and upper bounds:      224
                     variables with only upper bounds:        0
Total number of equality constraints.................:      415
Total number of inequality constraints...............:        0
        inequality constraints with only lower bounds:        0
   inequality constraints with lower and upper bounds:        0
        inequality constraints with only upper bounds:        0

iter    objective    inf_pr   inf_du lg(mu)  ||d||  lg(rg) alpha_du alpha_pr  ls
   0  0.0000000e+00 5.03e-01 8.88e-16  -1.0 0.00e+00    -  0.00e+00 0.00e+00   0
   1  8.2980625e-02 4.44e-01 4.45e+03  -1.0 1.86e+05    -  2.78e-01 1.08e-01h  2
   2  7.2155035e-01 3.17e-01 2.50e+03  -1.0 1.60e+05    -  6.00e-01 2.32e-01h  1
   3  7.3755905e-01 3.15e-01 2.48e+03  -1.0 1.42e+05    -  8.11e-01 5.00e-03h  1
   4  1.8456965e+01 3.05e-02 2.80e+04  -1.0 2.37e+05    -  7.87e-01 9.90e-01h  1
   5  2.3810528e+01 9.94e-04 1.47e+03  -1.0 4.55e+04    -  9.54e-01 9.90e-01h  1
   6  2.3978862e+01 1.09e-05 1.51e+01  -1.0 1.71e+03    -  9.90e-01 9.90e-01h  1
   7  2.4046493e+01 1.06e-06 1.97e+02  -1.0 7.91e+02    -  9.90e-01 9.90e-01h  1
   8  2.3978100e+01 1.24e-06 1.98e+05  -3.8 8.73e+02    -  1.00e+00 9.10e-01f  1
   9  2.3978264e+01 2.14e-10 3.73e+03  -3.8 2.04e+00    -  1.00e+00 1.00e+00h  1
iter    objective    inf_pr   inf_du lg(mu)  ||d||  lg(rg) alpha_du alpha_pr  ls
  10  2.3978263e+01 6.43e-13 2.46e+07  -3.8 2.64e-03    -  1.00e+00 1.00e+00h  1
In iteration 10, 32 Slacks too small, adjusting variable bounds
  11  2.3978263e+01 9.49e-13 1.64e+11  -3.8 3.83e-07    -  1.00e+00 1.00e+00h  1
  12  2.3978263e+01 1.04e-12 6.77e-03  -3.8 1.32e-07    -  1.00e+00 1.00e+00h  1
  13  2.3978113e+01 5.18e-13 2.35e+07  -9.0 1.75e+00    -  1.00e+00 1.00e+00F  1
  14  2.3978113e+01 3.49e-13 3.61e-09  -9.0 1.06e-05    -  1.00e+00 1.00e+00f  1

Number of Iterations....: 14

                                   (scaled)                 (unscaled)
Objective...............:   2.3978112942155818e+01    2.3978112942155818e+01
Dual infeasibility......:   3.6088749766349792e-09    3.6088749766349792e-09
Constraint violation....:   3.4949820815199928e-13    3.4949820815199928e-13
Complementarity.........:   9.0909140973173311e-10    9.0909140973173311e-10
Overall NLP error.......:   5.6515276018255610e-12    3.6088749766349792e-09


Number of objective function evaluations             = 21
Number of objective gradient evaluations             = 15
Number of equality constraint evaluations            = 21
Number of inequality constraint evaluations          = 0
Number of equality constraint Jacobian evaluations   = 15
Number of inequality constraint Jacobian evaluations = 0
Number of Lagrangian Hessian evaluations             = 14
Total CPU secs in IPOPT (w/o function evaluations)   =      0.026
Total CPU secs in NLP function evaluations           =      0.248

EXIT: Optimal Solution Found.
